1) A_131_3964_1

Bicliques> cat data/A_131_3964_1 | ./CNF2cg | ./BCC2SAT 131 -sb -cs "" ""
c ** Parameters **
c V                                     3964
c E                                     157484
c B                                     131
c sb-option                             no-sb
c ** Formatting **
c comments-option                       with-comments
c dimacs-parameter-option               with-parameters
c clauses-option                        without-cs
p cnf 21668972 2141120876

Bicliques> cat data/A_131_3964_1 | ./CNF2cg | ./BCC2SAT 131 +sb -cs "" ""
c ** Parameters **
c V                                     3964
c E                                     157484
c B                                     131
c sb-option                             basic-sb
c ** Formatting **
c comments-option                       with-comments
c dimacs-parameter-option               with-parameters
c clauses-option                        without-cs
c ** Symmetry Breaking **
c planted-edges                         128
c sb-stats                              100 : 120 124.75 128; 1.57874
c num_e-seeds                           0
c  e-seeds                              
p cnf 21668972 2141121260

No better symmetry-breaking with 10000 trials.


SAT-solving on server:

Bicliques> time cat data/A_131_3964_1 | ./CNF2cg | ./BCC2SAT 128 +sb "" "" "" > data/A_131_3964_1__128.cnf
real    7m40.211s
user    7m22.261s
sys     0m17.993s
Bicliques> ls -l data/A_131_3964_1__128.cnf
38384519194 Mar  4 02:31 data/A_131_3964_1__128.cnf
38384519213 Feb 24 10:33 A_131_3964_1__128.cnf
Bicliques> head -15 data/A_131_3964_1__128.cnf
c ** Parameters **
c V                                     3964
c E                                     157484
c B                                     128
c sb-option                             basic-sb
c ** Formatting **
c comments-option                       with-comments
c dimacs-parameter-option               with-parameters
c clauses-option                        with-cs
c ** Symmetry Breaking **
c planted-edges                         128
c sb-stats                              100 : 120 124.75 128; 1.57874
c num_e-seeds                           0
c  e-seeds                              
p cnf 21172736 2092091564


Bicliques> minisat-2.2.0 data/A_131_3964_1__128.cnf
Segmentation fault (core dumped)
Bicliques> minisat-2.2.0 -no-solve data/A_131_3964_1__128.cnf
Segmentation fault (core dumped)

Bicliques> minisat data/A_131_3964_1__128.cnf
Segmentation fault (core dumped)

Bicliques> OKsolver2002 data/A_131_3964_1__128.cnf
Segmentation fault (core dumped)
Also with _debug, _NTP, _NTP_debug -versions.


Bicliques> time cat data/A_131_3964_1__128.cnf | UnitClausePropagation > data/A_131_3964_1__128_ucp.cnf
real    44m18.388s
user    38m9.313s
sys     6m52.869s
max 347 GB
Bicliques> ls -l data/A_131_3964_1__128_ucp.cnf
245469 Mar  4 03:32 data/A_131_3964_1__128_ucp.cnf
Bicliques> head -20 data/A_131_3964_1__128_ucp.cnf
c ** Parameters **
c V                                     3964
c E                                     157484
c B                                     128
c sb-option                             basic-sb
c ** Formatting **
c comments-option                       with-comments
c dimacs-parameter-option               with-parameters
c clauses-option                        with-cs
c ** Symmetry Breaking **
c planted-edges                         128
c sb-stats                              100 : 120 124.75 128; 1.57874
c num_e-seeds                           0
c  e-seeds                              
c Additional comments regarding the unit-clause propagation:
c The original parameter were: n = 21172736, c = 2092091564.
c After elimination of empty clauses, unit-clauses and tautological clauses the number of clauses is 2092091180.
c Number of unit-clauses in input = 384.
c UCP performed 21167448 assignments.
p cnf 21172646 13246

Bicliques> minisat-2.2.0 data/A_131_3964_1__128_ucp.cnf
|  Number of variables:      21051987                                         |
|  Number of clauses:           13246                                         |
restarts              : 1
conflicts             : 0              (0 /sec)
decisions             : 1              (0.00 % random) (0 /sec)
propagations          : 0              (0 /sec)
conflict literals     : 0              (-nan % deleted)
Memory used           : 2697.37 MB
CPU time              : 4.9401 s
SATISFIABLE



2) A_160_1022_1

Bicliques> cat data/A_160_1022_1 | ./CNF2cg | ./BCC2SAT 160 -sb -cs "" ""
c ** Parameters **
c V                                     1022
c E                                     3328
c B                                     160
c sb-option                             no-sb
c ** Formatting **
c comments-option                       with-comments
c dimacs-parameter-option               with-parameters
c clauses-option                        without-cs
p cnf 859520 169250688

Bicliques> cat data/A_160_1022_1 | ./CNF2cg | ./BCC2SAT 160 "" -cs "" ""
c ** Parameters **
c V                                     1022
c E                                     3328
c B                                     160
c sb-option                             basic-sb
c ** Formatting **
c comments-option                       with-comments
c dimacs-parameter-option               with-parameters
c clauses-option                        without-cs
c ** Symmetry Breaking **
c planted-edges                         128
c sb-stats                              100 : 122 126.17 128; 1.37109
c num_e-seeds                           0
c  e-seeds                              
p cnf 859520 169251072

No better symmetry-breaking with 10000 trials.

SAT-solving on server:

Bicliques> time cat data/A_160_1022_1 | ./CNF2cg | ./BCC2SAT 128 "" "" "" "" > data/A_160_1022_1__128.cnf
real    0m29.212s
user    0m28.053s
sys     0m1.162s
Bicliques> ls -l data/A_160_1022_1__128.cnf
2341343923 Mar  4 11:07 data/A_160_1022_1__128.cnf
Bicliques> head -15 data/A_160_1022_1__128.cnf
c ** Parameters **
c V                                     1022
c E                                     3328
c B                                     128
c sb-option                             basic-sb
c ** Formatting **
c comments-option                       with-comments
c dimacs-parameter-option               with-parameters
c clauses-option                        with-cs
c ** Symmetry Breaking **
c planted-edges                         128
c sb-stats                              100 : 122 126.17 128; 1.37109
c num_e-seeds                           0
c  e-seeds                              
p cnf 687616 135401600

Bicliques> minisat-2.2.0 data/A_160_1022_1__128.cnf
|  Number of variables:        687616                                         |
|  Number of clauses:       135401216                                         |
|  Parse time:                  16.41 s                                       |
|  Simplification time:        506.54 s                                       |
restarts              : 1
conflicts             : 0              (0 /sec)
decisions             : 1              (0.00 % random) (0 /sec)
propagations          : 687616         (1315 /sec)
conflict literals     : 0              (-nan % deleted)
Memory used           : 8357.03 MB
CPU time              : 522.962 s

So, as above, it's mostly just UCP (indeed here it's only UCP).

Bicliques> OKsolver2002 data/A_160_1022_1__128.cnf
s SATISFIABLE
c sat_status                            1
c initial_maximal_clause_length         128
c initial_number_of_variables           687616
c initial_number_of_clauses             135401600
c initial_number_of_literal_occurrences 273778048
c number_of_initial_unit-eliminations   687616
c reddiff_maximal_clause_length         128
c reddiff_number_of_variables           687616
c reddiff_number_of_clauses             135401600
c reddiff_number_of_literal_occurrences 273778048
c number_of_2-clauses_after_reduction   0
c running_time(sec)                     28.8
c number_of_nodes                       0
c number_of_single_nodes                0
c number_of_quasi_single_nodes          0
c number_of_2-reductions                0
c number_of_pure_literals               0
c number_of_autarkies                   0
c number_of_missed_single_nodes         0
c max_tree_depth                        0
c proportion_searched                   0.000000e+00
c proportion_single                     0.000000e+00
c total_proportion                      0
c number_of_table_enlargements          0
c number_of_1-autarkies                 0
c number_of_new_2-clauses               0
c maximal_number_of_added_2-clauses     0
c file_name                             data/A_160_1022_1__128.cnf

Interesting that OKsolver2002 is indeed much faster than minisat here.


Running dedicated UCP:

Bicliques> time cat data/A_160_1022_1__128.cnf | UnitClausePropagation > data/A_160_1022_1__128_ucp.cnf
real    2m4.173s
user    1m53.972s
sys     0m12.822s
Bicliques> head -20 data/A_160_1022_1__128_ucp.cnf
c ** Parameters **
c V                                     1022
c E                                     3328
c B                                     128
c sb-option                             basic-sb
c ** Formatting **
c comments-option                       with-comments
c dimacs-parameter-option               with-parameters
c clauses-option                        with-cs
c ** Symmetry Breaking **
c planted-edges                         128
c sb-stats                              100 : 122 126.17 128; 1.37109
c num_e-seeds                           0
c  e-seeds                              
c Additional comments regarding the unit-clause propagation:
c The original parameter were: n = 687616, c = 135401600.
c After elimination of empty clauses, unit-clauses and tautological clauses the number of clauses is 135401216.
c Number of unit-clauses in input = 384.
c UCP determines satisfiability after processing 687616 assignments.
p cnf 0 0


Extracting the solution:

Bicliques> cat data/A_160_1022_1 | ./CNF2cg | ./BCCbySAT 128 +sb > data/A_160_1022_1_opt
Bicliques> less data/A_160_1022_1_opt
Symmetry-breaking: 100 : 124 126.27 128; 1.18794
Minisat-call for B=128: returned SAT
  Literal-Reduction by trimming: 0
  Size obtained: 128

bcc=128
exact 128 128
10 100 103 269 272 279 285 939 | 34 101 102 271 273 280 284 943
...

